Gurobi Optimizer version 9.1.2 build v9.1.2rc0 (linux64)
Thread count: 36 physical cores, 72 logical processors, using up to 32 threads
Optimize a model with 12 rows, 57 columns and 590 nonzeros
Model fingerprint: 0xf32eec78
Model has 47 quadratic constraints
Coefficient statistics:
  Matrix range     [2e-05, 3e+00]
  QMatrix range    [1e+00, 1e+00]
  QLMatrix range   [1e+00, 1e+00]
  Objective range  [8e-03, 7e-01]
  Bounds range     [1e+00, 1e+00]
  RHS range        [1e+00, 1e+00]
Presolve removed 9 rows and 0 columns

Continuous model is non-convex -- solving as a MIP.

Presolve removed 9 rows and 0 columns
Presolve time: 0.00s
Presolved: 189 rows, 57 columns, 443 nonzeros
Presolved model has 47 bilinear constraint(s)
Variable types: 57 continuous, 0 integer (0 binary)

Root relaxation: objective -1.743721e+00, 44 iterations, 0.00 seconds

    Nodes    |    Current Node    |     Objective Bounds      |     Work
 Expl Unexpl |  Obj  Depth IntInf | Incumbent    BestBd   Gap | It/Node Time

     0     0   -1.74372    0   38          -   -1.74372      -     -    0s
H    0     0                       0.6147548   -1.74372   384%     -    0s
     0     0   -1.64739    0    1    0.61475   -1.64739   368%     -    0s
H    0     0                      -1.6450460   -1.64739  0.14%     -    0s
     0     0     cutoff    0        -1.64505   -1.64505  0.00%     -    0s

Cutting planes:
  RLT: 25
  BQP: 3

Explored 1 nodes (76 simplex iterations) in 0.01 seconds
Thread count was 32 (of 72 available processors)

Solution count 2: -1.64505 0.614755 
No other solutions better than -1.64505

Optimal solution found (tolerance 1.00e-04)
Best objective -1.645045978473e+00, best bound -1.645045978473e+00, gap 0.0000%

User-callback calls 77, time in user-callback 0.00 sec
Gurobi Optimizer version 9.1.2 build v9.1.2rc0 (linux64)
Thread count: 36 physical cores, 72 logical processors, using up to 32 threads
Optimize a model with 60 rows, 312 columns and 16100 nonzeros
Model fingerprint: 0x0338948a
Model has 262 quadratic constraints
Coefficient statistics:
  Matrix range     [4e-07, 7e+00]
  QMatrix range    [1e+00, 1e+00]
  QLMatrix range   [1e+00, 1e+00]
  Objective range  [5e-03, 1e+00]
  Bounds range     [1e+00, 1e+00]
  RHS range        [1e+00, 1e+00]
Presolve removed 16 rows and 0 columns

Continuous model is non-convex -- solving as a MIP.

Presolve removed 16 rows and 0 columns
Presolve time: 0.01s
Presolved: 1080 rows, 312 columns, 13136 nonzeros
Presolved model has 262 bilinear constraint(s)
Variable types: 312 continuous, 0 integer (0 binary)

Root relaxation: objective -2.566994e+01, 327 iterations, 0.02 seconds

    Nodes    |    Current Node    |     Objective Bounds      |     Work
 Expl Unexpl |  Obj  Depth IntInf | Incumbent    BestBd   Gap | It/Node Time

     0     0  -25.66994    0  172          -  -25.66994      -     -    0s
     0     0  -24.54440    0   69          -  -24.54440      -     -    0s
     0     0  -24.50896    0   69          -  -24.50896      -     -    0s
     0     0  -24.43950    0   74          -  -24.43950      -     -    0s
     0     0  -24.42933    0   74          -  -24.42933      -     -    0s
     0     0  -24.40916    0   74          -  -24.40916      -     -    0s
     0     0  -24.40594    0   74          -  -24.40594      -     -    0s
     0     0  -24.40536    0   74          -  -24.40536      -     -    0s
     0     0  -24.40516    0   74          -  -24.40516      -     -    0s
     0     0  -24.40436    0   74          -  -24.40436      -     -    0s
     0     0  -24.40379    0   74          -  -24.40379      -     -    0s
     0     0  -24.40158    0   74          -  -24.40158      -     -    0s
     0     0  -24.40148    0   74          -  -24.40148      -     -    0s
     0     0  -24.40136    0   74          -  -24.40136      -     -    0s
     0     0  -24.40123    0   74          -  -24.40123      -     -    0s
H    0     0                     -21.8172641  -24.40123  11.8%     -    0s
H    0     0                     -21.9702615  -24.40123  11.1%     -    0s
     0     2  -24.40123    0   74  -21.97026  -24.40123  11.1%     -    0s
* 1770  1562              71     -21.9715968  -23.42442  6.61%  55.8    2s
* 1990  1693              77     -22.0491047  -23.42442  6.24%  52.7    2s
* 1992  1693              78     -22.0491049  -23.42442  6.24%  52.7    2s
* 1993  1693              78     -22.0491056  -23.42442  6.24%  52.6    2s
* 2104  1765              73     -22.4512208  -23.42442  4.33%  51.5    2s
* 2445  1885              66     -22.7705095  -23.34553  2.53%  50.1    2s
* 3063  1756              55     -22.8147131  -23.34553  2.33%  49.3    2s
* 3064  1756              55     -22.8147292  -23.34553  2.33%  49.2    2s
* 4797  1818              47     -22.8187973  -23.23967  1.84%  45.4    3s
* 4951  1817              51     -22.8222008  -23.22998  1.79%  45.0    3s
* 4953  1817              51     -22.8222038  -23.22998  1.79%  44.9    3s
* 5126  1817              53     -22.8247008  -23.22998  1.78%  44.4    3s
* 5131  1817              53     -22.8247305  -23.22998  1.78%  44.4    3s
* 5557  1793              42     -22.8251125  -23.16612  1.49%  43.5    3s
* 5769  1821              46     -22.8292410  -23.16612  1.48%  43.3    3s
* 7758   905              57     -22.8434364  -23.16612  1.41%  46.1    4s
  7907   910  -23.16612   18   38  -22.84344  -23.16612  1.41%  46.1    5s
* 8805   869              69     -22.8434811  -23.16612  1.41%  46.0    5s
* 8808   819              69     -22.8434822  -23.16612  1.41%  46.0    5s
* 9310   962              56     -22.8550258  -23.16612  1.36%  46.2    5s
* 9579  1037              60     -22.8642724  -23.16612  1.32%  46.2    5s
*10239  1134              71     -22.8704988  -23.16612  1.29%  46.5    5s
*11256  1331              66     -22.8729247  -23.16612  1.28%  46.3    6s
*12709  1749              81     -22.8777254  -23.16612  1.26%  45.7    6s
*12710  1749              81     -22.8780875  -23.16612  1.26%  45.7    6s
*12714  1749              82     -22.8781261  -23.16612  1.26%  45.7    6s
*12715  1749              82     -22.8781269  -23.16612  1.26%  45.7    6s
*12912  1749              87     -22.8909171  -23.16612  1.20%  45.6    6s
*12913  1749              87     -22.8909176  -23.16612  1.20%  45.6    6s
*12914  1749              86     -22.8909361  -23.16612  1.20%  45.6    6s
*13131  1712              88     -22.8937982  -23.16612  1.19%  45.4    6s
*13132  1712              88     -22.8937994  -23.16612  1.19%  45.4    6s
*13134  1712              86     -22.8941070  -23.16612  1.19%  45.4    6s
*15087  1696              65     -22.8952941  -23.03734  0.62%  44.5    7s
*18058  1834              75     -22.8954546  -22.98966  0.41%  42.4    7s
*18759  1816              70     -22.8955665  -22.98622  0.40%  41.7    7s
*18889  1816              65     -22.8956063  -22.98622  0.40%  41.5    7s
*18891  1816              66     -22.8956193  -22.98622  0.40%  41.5    7s
*19005  1816              74     -22.8956990  -22.98622  0.40%  41.4    7s
*19082  1816              59     -22.8957387  -22.98622  0.40%  41.4    7s
*20311  1772              63     -22.9024079  -22.97172  0.30%  40.6    8s
*20312  1772              63     -22.9024086  -22.97172  0.30%  40.6    8s
*21923  1775              66     -22.9026651  -22.95895  0.25%  39.4    8s
*22696  1717              69     -22.9027834  -22.95895  0.25%  38.8    8s
*22697  1717              69     -22.9028514  -22.95895  0.24%  38.8    8s
*23635  1712              79     -22.9028643  -22.94361  0.18%  38.2    8s
*23636  1712              78     -22.9028925  -22.94361  0.18%  38.2    8s
*23637  1712              77     -22.9030012  -22.94361  0.18%  38.2    8s
*23711  1712              66     -22.9030154  -22.94357  0.18%  38.1    8s
*23712  1712              66     -22.9030156  -22.94357  0.18%  38.1    8s
*23714  1712              66     -22.9030359  -22.94357  0.18%  38.1    8s
*23715  1712              66     -22.9030361  -22.94357  0.18%  38.1    8s
*23717  1712              65     -22.9030498  -22.94357  0.18%  38.1    8s
*23718  1712              65     -22.9030506  -22.94357  0.18%  38.1    8s
*24016  1712              76     -22.9032228  -22.94252  0.17%  37.9    8s
*24019  1712              77     -22.9032278  -22.94252  0.17%  37.9    8s
*24051  1712              78     -22.9036793  -22.94125  0.16%  37.9    8s
*24055  1712              77     -22.9039576  -22.94125  0.16%  37.9    8s
*25324  1828              76     -22.9047586  -22.93510  0.13%  37.0    8s
*25325  1828              75     -22.9048349  -22.93510  0.13%  37.0    8s
*27705  2048              69     -22.9049939  -22.93017  0.11%  35.2    9s
*27747  2048              64     -22.9100426  -22.93017  0.09%  35.2    9s
*27752  2048              66     -22.9100458  -22.93017  0.09%  35.2    9s
*28085  1760              72     -22.9126876  -22.93017  0.08%  34.9    9s
*28271  1760              73     -22.9126887  -22.93017  0.08%  34.8    9s
*30676  1192              66     -22.9127488  -22.92051  0.03%  33.1    9s
*30679  1192              66     -22.9127546  -22.92051  0.03%  33.1    9s
 31955  1217     cutoff   56       -22.91275  -22.91683  0.02%  32.1   10s
*32203  1217              76     -22.9127551  -22.91581  0.01%  31.9   10s
*32205  1217              75     -22.9127551  -22.91581  0.01%  31.9   10s
*32679  1217              75     -22.9127773  -22.91581  0.01%  31.6   10s
*32680  1217              75     -22.9127787  -22.91581  0.01%  31.6   10s
*32682  1217              74     -22.9127799  -22.91581  0.01%  31.6   10s
*32683  1217              74     -22.9127806  -22.91581  0.01%  31.6   10s
*32865  1217              71     -22.9127813  -22.91581  0.01%  31.4   10s
*33058  1217              71     -22.9128676  -22.91581  0.01%  31.3   10s
*33065  1217              71     -22.9128676  -22.91581  0.01%  31.3   10s
*33068  1217              71     -22.9128676  -22.91581  0.01%  31.3   10s
*34062   942              70     -22.9128767  -22.91561  0.01%  30.6   10s
*34532   942              74     -22.9128786  -22.91561  0.01%  30.2   10s
*34537   942              74     -22.9128791  -22.91561  0.01%  30.2   10s
*35319   876              73     -22.9128799  -22.91561  0.01%  29.6   10s
*35322   876              75     -22.9128800  -22.91561  0.01%  29.6   10s
*35566   876              74     -22.9128800  -22.91561  0.01%  29.4   10s
*35575   876              75     -22.9128810  -22.91561  0.01%  29.4   10s

Explored 38043 nodes (1057814 simplex iterations) in 10.68 seconds
Thread count was 32 (of 72 available processors)

Solution count 10: -22.9129 -22.9129 -22.9129 ... -22.9129

Optimal solution found (tolerance 1.00e-04)
Best objective -2.291288098135e+01, best bound -2.291325251611e+01, gap 0.0016%

User-callback calls 77303, time in user-callback 0.01 sec



objective value: -22.912880981346014
objective bound: -22.913252516113413
x_opt: [1.0, 1.0, 0.0, 0.5298204668259692, 0.0, 0.0, 1.0, 0.0, 0.0, 0.0, 1.0, 0.0, 1.0, 1.0, 0.37977935103336774, 1.0, 0.0, 1.0, 0.0, 0.0, 1.0, 0.5761714775251604, 0.0, 0.751983035997825, 0.0, 0.7177781038071773, 0.0, 1.0, 0.0, 0.0, 1.0, 0.8448871471819621, 0.0, 0.412105980790761, 1.0, 1.0, 0.06381151761089066, 1.0, 0.0, 0.8902364878370949, 1.0, 0.0, 1.0, 0.00025969915979834823, 0.0, 0.09703738033466333, 0.8122873918063763, 0.05488793821451747, 1.0, 0.15340777360503702]
GUROBI solution time: 10.683232069015503




